(declare-const |K:84:85:88| Int)
(declare-const havoc Int)
(declare-const |K:73:74:76| Int)
(declare-const |i':91:101| Int)
(declare-const |havoc:2| Int)
(declare-const |k':67:102| Int)
(declare-const j Int)
(declare-const k Int)
(declare-const |K:98:99| Int)
(declare-const |j':78:100| Int)
(declare-const |k':67:87:90| Int)
(declare-const |k':67:75:77| Int)
(declare-const |havoc:1| Int)
(declare-const |j':78:86:89| Int)
(assert (and (< (+ (- havoc) -1000000) 0) (< (+ havoc -1000000) 0)
               (< (+ (- |havoc:1|) -1000000) 0) (< (+ |havoc:1| -1000000) 0)
               (< (+ (- |havoc:2|) -1000000) 0) (< (+ |havoc:2| -1000000) 0)
               (<= (+ (- |havoc:2|) (- |havoc:1|) (* 3 havoc)) 0)
               (or (not (and (<= (- |K:98:99|) 0) (<= |K:98:99| 0)))
                     (= (+ (- j) |j':78:100| (* -3 |K:98:99|)) 0))
               (or (not (<= (+ (- |K:98:99|) 1) 0))
                     (= (+ |j':78:100| (* -3 |K:98:99|) 3) 0))
               (or (not (<= (- |K:98:99|) 0))
                     (= (+ |i':91:101| (- |K:98:99|)) 0))
               (or (and (= |K:98:99| 0) (= (+ (- |k':67:102|) k) 0)
                          (= (+ j (- |j':78:100|)) 0) (= (- |i':91:101|) 0))
                     (and (<= (+ (- |K:98:99|) 1) 0) (<= (+ (- havoc) 1) 0)
                            (= (+ (* -3 |i':91:101|) |j':78:100| 3) 0)
                            (<= (+ |i':91:101| (- havoc)) 0)
                            (<= (+ (- |i':91:101|) 1) 0)))
               (<= (- |K:98:99|) 0) (<= (- |i':91:101|) 0)
               (< (+ |i':91:101| (- havoc)) 0)
               (or (not (<= (- |K:84:85:88|) 0))
                     (= (+ |j':78:86:89| (- |K:84:85:88|) (* -2 |i':91:101|)) 0))
               (or (and (= |K:84:85:88| 0)
                          (= (+ (- |k':67:87:90|) |k':67:102|) 0)
                          (= (+ (- |j':78:86:89|) (* 2 |i':91:101|)) 0))
                     (and (<= (+ (- |K:84:85:88|) 1) 0)
                            (<= (+ |i':91:101| (* -2 havoc) -1) 0)
                            (<= (+ (- |i':91:101|) 1) 0)
                            (<= (+ (- havoc) 1) 0)
                            (<= (+ (- |i':91:101|) 1) 0)
                            (<= (- |i':91:101|) 0)
                            (<= (+ (- |k':67:87:90|) |j':78:86:89| -1) 0)
                            (<= (+ |k':67:87:90| (- |i':91:101|) (* -2 havoc)
                                     -1) 0) (<= (+ (- havoc) 1) 0)
                            (<= (+ (- |i':91:101|) 1) 0)
                            (<= (+ (- |k':67:87:90|) |i':91:101|) 0)
                            (<= (+ (* 2 |k':67:87:90|) (- |j':78:86:89|)
                                     (* -3 |i':91:101|) 2) 0)
                            (<= (+ (* 3 |k':67:87:90|) (* -2 |j':78:86:89|)
                                     (* -3 |i':91:101|) 2) 0)
                            (<= (+ (* 5 |k':67:87:90|) (* -3 |j':78:86:89|)
                                     (* -5 |i':91:101|) (- havoc) 4) 0)))
               (<= (- |K:84:85:88|) 0) (<= (- |j':78:86:89|) 0)
               (<= (- |i':91:101|) 0) (< (- havoc) 0)
               (< (+ |j':78:86:89| (* -3 |i':91:101|)) 0)
               (or (not (<= (- |K:73:74:76|) 0))
                     (= (+ |k':67:75:77| (- |K:73:74:76|) (- |i':91:101|)) 0))
               (or (and (= |K:73:74:76| 0)
                          (= (+ (- |k':67:75:77|) |i':91:101|) 0))
                     (and (<= (+ (- |K:73:74:76|) 1) 0)
                            (<= (+ (- |j':78:86:89|) |i':91:101| 1) 0)
                            (<= (- havoc) 0) (<= (+ (- havoc) 1) 0)
                            (<= (+ (- |i':91:101|) 1) 0)
                            (<= (+ (- |i':91:101|) 1) 0)
                            (<= (+ |k':67:75:77| (- |j':78:86:89|)) 0)
                            (<= (+ |k':67:75:77| (- |i':91:101|) (* -2 havoc)
                                     -1) 0) (<= (+ (- havoc) 1) 0)
                            (<= (+ (- |i':91:101|) 1) 0)
                            (<= (+ (- |k':67:75:77|) 2) 0)))
               (<= (- |K:73:74:76|) 0) (< (- |k':67:75:77|) 0)
               (<= (- |j':78:86:89|) 0) (< (- |i':91:101|) 0) (< (- havoc) 0)
               (< (+ |k':67:75:77| (- |j':78:86:89|)) 0)
               (not (<= (+ |k':67:75:77| (- |i':91:101|) (* -2 havoc)) 0))))
(check-sat)
